c
c start with comments
c
p cnf 27 16
-13 -1 -19 -8 -3 0
-26 27 -11 0
8 27 -19 0
-16 25 19 21 -16 -16 0
16 12 0
18 26 2 0
-6 15 0
-25 -24 -20 0
-9 4 23 -19 0
-17 11 -3 -13 -19 0
-1 20 -12 0
-2 -3 11 -28 0
17 -21 0
-27 4 2 0
-3 14 -9 18 -3 22 0
7 -10 0